1502.0 18965.0 531.0 
1485.0 19192.0 485.0 
1495.0 19048.0 310.0 
1510.0 19247.0 120.0 
1460.0 19716.0 1319.0 
1520.0 18825.0 285.0 
1495.0 19036.0 404.0 
1497.0 19031.0 392.0 
1518.0 18915.0 113.0 
1503.0 19023.0 494.0 
1469.0 19290.0 708.0 
1484.0 19412.0 562.0 
1526.0 18902.0 0.0 
1484.0 19240.0 986.0 
1524.0 18924.0 0.0 
1513.0 18938.0 179.0 
1505.0 18943.0 454.0 
1511.0 18851.0 285.0 
1482.0 19285.0 688.0 
1485.0 18873.0 590.0 
1521.0 19356.0 67.0 
1503.0 19029.0 265.0 
1517.0 19234.0 136.0 
